PARAMETER_FILE = even/even_complete_graph_new/par/random135.par
PROBLEM_FILE = even/even_complete_graph_new/mat/random135.tsp
Successes/Runs = 0/10
Cost.min = 879, Cost.avg = 879.00, Cost.max = 879
Gap.min = 0.0000%, Gap.avg = 0.0000%, Gap.max = 0.0000%
Trials.min = 1000, Trials.avg = 1000.0, Trials.max = 1000
Time.min = 1.10 sec., Time.avg = 1.76 sec., Time.max = 3.21 sec.
Time.total = 17.72 sec.
